AES/1_2_8/ssaes_r1-20_c2_rw1_e8_f0_k1-20_aes_canon_box_aes_mc_bidirectional/ExperimentMinisat_r19_k20cnf_2011-11-07-115428/Result
WARNING: for repeatability, setting FPU to use double precision
============================[ Problem Statistics ]=============================
|                                                                             |
|  Number of variables:         16160                                         |
|  Number of clauses:          251833                                         |
|  Parse time:                   0.10 s                                       |
|  Eliminated clauses:           0.02 Mb                                      |
|  Simplification time:          0.32 s                                       |
|                                                                             |
=============================[ Search Statistics ]==============================
| Conflicts  |          ORIGINAL         |          LEARNT          | Progress |
|            |    Vars  Clauses Literals |    Limit  Clauses Lit/Cl |          |
================================================================================
|        100 |   15656   250521   736768 |    91857      100    182 |  1.139 % |
|        250 |   15656   250521   736768 |   101043      250     80 |  1.139 % |
|        475 |   15656   250521   736768 |   111147      475     48 |  1.139 % |
|        812 |   15656   250521   736768 |   122262      812     35 |  1.139 % |
|       1318 |   15656   250521   736768 |   134488     1318     30 |  1.139 % |
|       2077 |   15656   250521   736768 |   147937     2077     30 |  1.139 % |
|       3216 |   15656   250521   736768 |   162731     3216     33 |  1.139 % |
|       4924 |   15656   250521   736768 |   179004     4924     32 |  1.139 % |
|       7486 |   15656   250521   736768 |   196905     7486     29 |  1.139 % |
|      11330 |   15656   250521   736768 |   216595    11330     28 |  1.139 % |
|      17096 |   15656   250521   736768 |   238255    17096     25 |  1.139 % |
|      25745 |   15656   250521   736768 |   262080    25745     24 |  1.139 % |
===============================================================================
restarts              : 126
conflicts             : 37908          (702 /sec)
decisions             : 43478          (0.00 % random) (805 /sec)
propagations          : 456241709      (8451927 /sec)
conflict literals     : 996465         (95.48 % deleted)
Memory used           : 29.00 MB
CPU time              : 53.9808 s

SATISFIABLE
